c Reduced graph for 1-Insertions_5 generated by Cyril Grelier
p edge 202 1227
e 1 8
e 1 67
e 1 68
e 1 125
e 1 126
e 1 127
e 1 128
e 1 129
e 1 130
e 1 131
e 1 132
e 1 133
e 1 134
e 1 135
e 1 136
e 1 137
e 1 138
e 1 139
e 1 140
e 1 141
e 1 142
e 1 143
e 1 144
e 1 145
e 1 146
e 1 147
e 1 148
e 1 149
e 1 150
e 1 151
e 1 152
e 1 153
e 1 168
e 1 169
e 1 170
e 1 171
e 1 172
e 1 173
e 1 174
e 1 175
e 1 176
e 1 177
e 1 178
e 1 179
e 1 180
e 1 181
e 1 182
e 1 183
e 1 184
e 1 185
e 1 186
e 1 187
e 1 188
e 1 189
e 1 190
e 1 191
e 1 192
e 1 193
e 1 194
e 1 195
e 1 196
e 1 197
e 1 198
e 1 199
e 1 200
e 1 201
e 1 202
e 2 37
e 2 66
e 2 97
e 2 98
e 2 99
e 2 100
e 2 101
e 2 102
e 2 103
e 2 104
e 2 105
e 2 106
e 2 107
e 2 108
e 2 109
e 2 110
e 2 111
e 2 112
e 2 113
e 2 114
e 2 115
e 2 116
e 2 117
e 2 118
e 2 119
e 2 120
e 2 121
e 2 122
e 2 123
e 2 124
e 2 154
e 2 155
e 2 156
e 2 157
e 2 158
e 2 159
e 2 160
e 2 161
e 2 162
e 2 163
e 2 164
e 2 165
e 2 166
e 2 167
e 3 37
e 3 97
e 3 98
e 3 99
e 3 100
e 3 101
e 3 102
e 3 103
e 3 104
e 3 105
e 3 106
e 3 107
e 3 108
e 3 109
e 3 110
e 3 153
e 3 154
e 3 155
e 3 156
e 3 157
e 3 158
e 3 159
e 3 160
e 3 182
e 3 183
e 3 184
e 3 185
e 3 186
e 3 187
e 3 188
e 3 189
e 3 190
e 3 191
e 3 192
e 3 193
e 3 194
e 3 195
e 3 196
e 3 197
e 3 198
e 3 199
e 3 200
e 3 201
e 3 202
e 4 69
e 4 70
e 4 71
e 4 72
e 4 73
e 4 74
e 4 75
e 4 76
e 4 77
e 4 78
e 4 79
e 4 80
e 4 81
e 4 82
e 4 83
e 4 84
e 4 85
e 4 86
e 4 87
e 4 88
e 4 89
e 4 90
e 4 91
e 4 92
e 4 93
e 4 94
e 4 95
e 4 96
e 5 69
e 5 70
e 5 71
e 5 72
e 5 73
e 5 74
e 5 75
e 5 83
e 5 84
e 5 85
e 5 86
e 5 87
e 5 88
e 5 89
e 5 154
e 5 155
e 5 156
e 5 157
e 5 158
e 5 159
e 5 160
e 5 161
e 5 162
e 5 163
e 5 164
e 5 165
e 5 166
e 5 167
e 6 69
e 6 70
e 6 71
e 6 72
e 6 73
e 6 74
e 6 75
e 6 76
e 6 77
e 6 78
e 6 79
e 6 80
e 6 81
e 6 82
e 6 168
e 6 169
e 6 170
e 6 171
e 6 172
e 6 173
e 6 174
e 6 175
e 6 176
e 6 177
e 6 178
e 6 179
e 6 180
e 6 181
e 7 69
e 7 70
e 7 71
e 7 72
e 7 73
e 7 74
e 7 75
e 7 154
e 7 155
e 7 156
e 7 157
e 7 158
e 7 159
e 7 160
e 7 168
e 7 169
e 7 170
e 7 171
e 7 172
e 7 173
e 7 174
e 7 196
e 7 197
e 7 198
e 7 199
e 7 200
e 7 201
e 7 202
e 8 66
e 8 111
e 8 112
e 8 113
e 8 114
e 8 115
e 8 116
e 8 117
e 8 118
e 8 119
e 8 120
e 8 121
e 8 122
e 8 123
e 8 124
e 8 161
e 8 162
e 8 163
e 8 164
e 8 165
e 8 166
e 8 167
e 9 10
e 9 12
e 9 17
e 9 19
e 9 24
e 9 26
e 9 31
e 9 33
e 9 39
e 9 41
e 9 46
e 9 48
e 9 53
e 9 55
e 9 60
e 9 62
e 10 11
e 10 16
e 10 18
e 10 23
e 10 25
e 10 30
e 10 32
e 10 38
e 10 40
e 10 45
e 10 47
e 10 52
e 10 54
e 10 59
e 10 61
e 11 14
e 11 17
e 11 21
e 11 24
e 11 28
e 11 31
e 11 35
e 11 39
e 11 43
e 11 46
e 11 50
e 11 53
e 11 57
e 11 60
e 11 64
e 12 13
e 12 16
e 12 20
e 12 23
e 12 27
e 12 30
e 12 34
e 12 38
e 12 42
e 12 45
e 12 49
e 12 52
e 12 56
e 12 59
e 12 63
e 13 15
e 13 19
e 13 22
e 13 26
e 13 29
e 13 33
e 13 36
e 13 41
e 13 44
e 13 48
e 13 51
e 13 55
e 13 58
e 13 62
e 13 65
e 14 15
e 14 18
e 14 22
e 14 25
e 14 29
e 14 32
e 14 36
e 14 40
e 14 44
e 14 47
e 14 51
e 14 54
e 14 58
e 14 61
e 14 65
e 15 20
e 15 21
e 15 27
e 15 28
e 15 34
e 15 35
e 15 42
e 15 43
e 15 49
e 15 50
e 15 56
e 15 57
e 15 63
e 15 64
e 16 24
e 16 26
e 16 39
e 16 41
e 16 53
e 16 55
e 16 70
e 16 72
e 16 77
e 16 79
e 16 84
e 16 86
e 16 91
e 16 93
e 17 23
e 17 25
e 17 38
e 17 40
e 17 52
e 17 54
e 17 69
e 17 71
e 17 76
e 17 78
e 17 83
e 17 85
e 17 90
e 17 92
e 18 24
e 18 28
e 18 39
e 18 43
e 18 53
e 18 57
e 18 70
e 18 74
e 18 77
e 18 81
e 18 84
e 18 88
e 18 91
e 18 95
e 19 23
e 19 27
e 19 38
e 19 42
e 19 52
e 19 56
e 19 69
e 19 73
e 19 76
e 19 80
e 19 83
e 19 87
e 19 90
e 19 94
e 20 26
e 20 29
e 20 41
e 20 44
e 20 55
e 20 58
e 20 72
e 20 75
e 20 79
e 20 82
e 20 86
e 20 89
e 20 93
e 20 96
e 21 25
e 21 29
e 21 40
e 21 44
e 21 54
e 21 58
e 21 71
e 21 75
e 21 78
e 21 82
e 21 85
e 21 89
e 21 92
e 21 96
e 22 27
e 22 28
e 22 42
e 22 43
e 22 56
e 22 57
e 22 73
e 22 74
e 22 80
e 22 81
e 22 87
e 22 88
e 22 94
e 22 95
e 23 39
e 23 41
e 23 46
e 23 48
e 23 98
e 23 100
e 23 105
e 23 107
e 23 112
e 23 114
e 23 119
e 23 121
e 24 38
e 24 40
e 24 45
e 24 47
e 24 97
e 24 99
e 24 104
e 24 106
e 24 111
e 24 113
e 24 118
e 24 120
e 25 39
e 25 43
e 25 46
e 25 50
e 25 98
e 25 102
e 25 105
e 25 109
e 25 112
e 25 116
e 25 119
e 25 123
e 26 38
e 26 42
e 26 45
e 26 49
e 26 97
e 26 101
e 26 104
e 26 108
e 26 111
e 26 115
e 26 118
e 26 122
e 27 41
e 27 44
e 27 48
e 27 51
e 27 100
e 27 103
e 27 107
e 27 110
e 27 114
e 27 117
e 27 121
e 27 124
e 28 40
e 28 44
e 28 47
e 28 51
e 28 99
e 28 103
e 28 106
e 28 110
e 28 113
e 28 117
e 28 120
e 28 124
e 29 42
e 29 43
e 29 49
e 29 50
e 29 101
e 29 102
e 29 108
e 29 109
e 29 115
e 29 116
e 29 122
e 29 123
e 30 39
e 30 41
e 30 70
e 30 72
e 30 84
e 30 86
e 30 98
e 30 100
e 30 112
e 30 114
e 30 155
e 30 157
e 30 162
e 30 164
e 31 38
e 31 40
e 31 69
e 31 71
e 31 83
e 31 85
e 31 97
e 31 99
e 31 111
e 31 113
e 31 154
e 31 156
e 31 161
e 31 163
e 32 39
e 32 43
e 32 70
e 32 74
e 32 84
e 32 88
e 32 98
e 32 102
e 32 112
e 32 116
e 32 155
e 32 159
e 32 162
e 32 166
e 33 38
e 33 42
e 33 69
e 33 73
e 33 83
e 33 87
e 33 97
e 33 101
e 33 111
e 33 115
e 33 154
e 33 158
e 33 161
e 33 165
e 34 41
e 34 44
e 34 72
e 34 75
e 34 86
e 34 89
e 34 100
e 34 103
e 34 114
e 34 117
e 34 157
e 34 160
e 34 164
e 34 167
e 35 40
e 35 44
e 35 71
e 35 75
e 35 85
e 35 89
e 35 99
e 35 103
e 35 113
e 35 117
e 35 156
e 35 160
e 35 163
e 35 167
e 36 42
e 36 43
e 36 73
e 36 74
e 36 87
e 36 88
e 36 101
e 36 102
e 36 115
e 36 116
e 36 158
e 36 159
e 36 165
e 36 166
e 37 76
e 37 77
e 37 78
e 37 79
e 37 80
e 37 81
e 37 82
e 37 90
e 37 91
e 37 92
e 37 93
e 37 94
e 37 95
e 37 96
e 38 126
e 38 128
e 38 133
e 38 135
e 38 140
e 38 142
e 38 147
e 38 149
e 39 125
e 39 127
e 39 132
e 39 134
e 39 139
e 39 141
e 39 146
e 39 148
e 40 126
e 40 130
e 40 133
e 40 137
e 40 140
e 40 144
e 40 147
e 40 151
e 41 125
e 41 129
e 41 132
e 41 136
e 41 139
e 41 143
e 41 146
e 41 150
e 42 128
e 42 131
e 42 135
e 42 138
e 42 142
e 42 145
e 42 149
e 42 152
e 43 127
e 43 131
e 43 134
e 43 138
e 43 141
e 43 145
e 43 148
e 43 152
e 44 129
e 44 130
e 44 136
e 44 137
e 44 143
e 44 144
e 44 150
e 44 151
e 45 70
e 45 72
e 45 77
e 45 79
e 45 126
e 45 128
e 45 140
e 45 142
e 45 169
e 45 171
e 45 176
e 45 178
e 46 69
e 46 71
e 46 76
e 46 78
e 46 125
e 46 127
e 46 139
e 46 141
e 46 168
e 46 170
e 46 175
e 46 177
e 47 70
e 47 74
e 47 77
e 47 81
e 47 126
e 47 130
e 47 140
e 47 144
e 47 169
e 47 173
e 47 176
e 47 180
e 48 69
e 48 73
e 48 76
e 48 80
e 48 125
e 48 129
e 48 139
e 48 143
e 48 168
e 48 172
e 48 175
e 48 179
e 49 72
e 49 75
e 49 79
e 49 82
e 49 128
e 49 131
e 49 142
e 49 145
e 49 171
e 49 174
e 49 178
e 49 181
e 50 71
e 50 75
e 50 78
e 50 82
e 50 127
e 50 131
e 50 141
e 50 145
e 50 170
e 50 174
e 50 177
e 50 181
e 51 73
e 51 74
e 51 80
e 51 81
e 51 129
e 51 130
e 51 143
e 51 144
e 51 172
e 51 173
e 51 179
e 51 180
e 52 98
e 52 100
e 52 105
e 52 107
e 52 126
e 52 128
e 52 133
e 52 135
e 52 183
e 52 185
e 52 190
e 52 192
e 53 97
e 53 99
e 53 104
e 53 106
e 53 125
e 53 127
e 53 132
e 53 134
e 53 182
e 53 184
e 53 189
e 53 191
e 54 98
e 54 102
e 54 105
e 54 109
e 54 126
e 54 130
e 54 133
e 54 137
e 54 183
e 54 187
e 54 190
e 54 194
e 55 97
e 55 101
e 55 104
e 55 108
e 55 125
e 55 129
e 55 132
e 55 136
e 55 182
e 55 186
e 55 189
e 55 193
e 56 100
e 56 103
e 56 107
e 56 110
e 56 128
e 56 131
e 56 135
e 56 138
e 56 185
e 56 188
e 56 192
e 56 195
e 57 99
e 57 103
e 57 106
e 57 110
e 57 127
e 57 131
e 57 134
e 57 138
e 57 184
e 57 188
e 57 191
e 57 195
e 58 101
e 58 102
e 58 108
e 58 109
e 58 129
e 58 130
e 58 136
e 58 137
e 58 186
e 58 187
e 58 193
e 58 194
e 59 70
e 59 72
e 59 98
e 59 100
e 59 126
e 59 128
e 59 155
e 59 157
e 59 169
e 59 171
e 59 183
e 59 185
e 59 197
e 59 199
e 60 69
e 60 71
e 60 97
e 60 99
e 60 125
e 60 127
e 60 154
e 60 156
e 60 168
e 60 170
e 60 182
e 60 184
e 60 196
e 60 198
e 61 70
e 61 74
e 61 98
e 61 102
e 61 126
e 61 130
e 61 155
e 61 159
e 61 169
e 61 173
e 61 183
e 61 187
e 61 197
e 61 201
e 62 69
e 62 73
e 62 97
e 62 101
e 62 125
e 62 129
e 62 154
e 62 158
e 62 168
e 62 172
e 62 182
e 62 186
e 62 196
e 62 200
e 63 72
e 63 75
e 63 100
e 63 103
e 63 128
e 63 131
e 63 157
e 63 160
e 63 171
e 63 174
e 63 185
e 63 188
e 63 199
e 63 202
e 64 71
e 64 75
e 64 99
e 64 103
e 64 127
e 64 131
e 64 156
e 64 160
e 64 170
e 64 174
e 64 184
e 64 188
e 64 198
e 64 202
e 65 73
e 65 74
e 65 101
e 65 102
e 65 129
e 65 130
e 65 158
e 65 159
e 65 172
e 65 173
e 65 186
e 65 187
e 65 200
e 65 201
e 66 76
e 66 77
e 66 78
e 66 79
e 66 80
e 66 81
e 66 82
e 66 175
e 66 176
e 66 177
e 66 178
e 66 179
e 66 180
e 66 181
e 67 83
e 67 84
e 67 85
e 67 86
e 67 87
e 67 88
e 67 89
e 67 90
e 67 91
e 67 92
e 67 93
e 67 94
e 67 95
e 67 96
e 68 83
e 68 84
e 68 85
e 68 86
e 68 87
e 68 88
e 68 89
e 68 161
e 68 162
e 68 163
e 68 164
e 68 165
e 68 166
e 68 167
e 76 105
e 76 107
e 76 119
e 76 121
e 77 104
e 77 106
e 77 118
e 77 120
e 78 105
e 78 109
e 78 119
e 78 123
e 79 104
e 79 108
e 79 118
e 79 122
e 80 107
e 80 110
e 80 121
e 80 124
e 81 106
e 81 110
e 81 120
e 81 124
e 82 108
e 82 109
e 82 122
e 82 123
e 83 133
e 83 135
e 83 147
e 83 149
e 84 132
e 84 134
e 84 146
e 84 148
e 85 133
e 85 137
e 85 147
e 85 151
e 86 132
e 86 136
e 86 146
e 86 150
e 87 135
e 87 138
e 87 149
e 87 152
e 88 134
e 88 138
e 88 148
e 88 152
e 89 136
e 89 137
e 89 150
e 89 151
e 90 105
e 90 107
e 90 133
e 90 135
e 90 153
e 90 190
e 90 192
e 91 104
e 91 106
e 91 132
e 91 134
e 91 153
e 91 189
e 91 191
e 92 105
e 92 109
e 92 133
e 92 137
e 92 153
e 92 190
e 92 194
e 93 104
e 93 108
e 93 132
e 93 136
e 93 153
e 93 189
e 93 193
e 94 107
e 94 110
e 94 135
e 94 138
e 94 153
e 94 192
e 94 195
e 95 106
e 95 110
e 95 134
e 95 138
e 95 153
e 95 191
e 95 195
e 96 108
e 96 109
e 96 136
e 96 137
e 96 153
e 96 193
e 96 194
e 111 140
e 111 142
e 111 147
e 111 149
e 112 139
e 112 141
e 112 146
e 112 148
e 113 140
e 113 144
e 113 147
e 113 151
e 114 139
e 114 143
e 114 146
e 114 150
e 115 142
e 115 145
e 115 149
e 115 152
e 116 141
e 116 145
e 116 148
e 116 152
e 117 143
e 117 144
e 117 150
e 117 151
e 118 140
e 118 142
e 118 176
e 118 178
e 119 139
e 119 141
e 119 175
e 119 177
e 120 140
e 120 144
e 120 176
e 120 180
e 121 139
e 121 143
e 121 175
e 121 179
e 122 142
e 122 145
e 122 178
e 122 181
e 123 141
e 123 145
e 123 177
e 123 181
e 124 143
e 124 144
e 124 179
e 124 180
e 146 162
e 146 164
e 147 161
e 147 163
e 148 162
e 148 166
e 149 161
e 149 165
e 150 164
e 150 167
e 151 163
e 151 167
e 152 165
e 152 166
